(set-info :smt-lib-version 2.6)
(set-logic QF_UFLRA)
(set-info :source |
MathSat group

|)
(set-info :category "random")
(set-info :status sat)
(declare-fun x0 () Real)
(declare-fun x1 () Real)
(declare-fun x2 () Real)
(declare-fun x3 () Real)
(declare-fun x4 () Real)
(declare-fun x5 () Real)
(declare-fun x6 () Real)
(declare-fun x7 () Real)
(declare-fun x8 () Real)
(declare-fun x9 () Real)
(declare-fun x10 () Real)
(declare-fun x11 () Real)
(declare-fun x12 () Real)
(declare-fun x13 () Real)
(declare-fun x14 () Real)
(declare-fun x15 () Real)
(declare-fun x16 () Real)
(declare-fun x17 () Real)
(declare-fun x18 () Real)
(declare-fun x19 () Real)
(declare-fun x20 () Real)
(declare-fun x21 () Real)
(declare-fun x22 () Real)
(declare-fun x23 () Real)
(declare-fun x24 () Real)
(declare-fun x25 () Real)
(declare-fun x26 () Real)
(declare-fun x27 () Real)
(declare-fun x28 () Real)
(declare-fun x29 () Real)
(declare-fun x30 () Real)
(declare-fun x31 () Real)
(declare-fun x32 () Real)
(declare-fun x33 () Real)
(declare-fun x34 () Real)
(declare-fun x35 () Real)
(declare-fun x36 () Real)
(declare-fun x37 () Real)
(declare-fun x38 () Real)
(declare-fun x39 () Real)
(declare-fun x40 () Real)
(declare-fun x41 () Real)
(declare-fun x42 () Real)
(declare-fun x43 () Real)
(declare-fun x44 () Real)
(declare-fun x45 () Real)
(declare-fun x46 () Real)
(declare-fun x47 () Real)
(declare-fun x48 () Real)
(declare-fun x49 () Real)
(declare-fun f0_1 (Real) Real)
(declare-fun f0_2 (Real Real) Real)
(declare-fun f0_3 (Real Real Real) Real)
(declare-fun f0_4 (Real Real Real Real) Real)
(declare-fun P0 () Bool)
(declare-fun P1 () Bool)
(declare-fun P2 () Bool)
(declare-fun P3 () Bool)
(declare-fun P4 () Bool)
(declare-fun P5 () Bool)
(declare-fun P6 () Bool)
(declare-fun P7 () Bool)
(declare-fun P8 () Bool)
(declare-fun P9 () Bool)
(declare-fun P10 () Bool)
(declare-fun P11 () Bool)
(declare-fun P12 () Bool)
(declare-fun P13 () Bool)
(declare-fun P14 () Bool)
(declare-fun P15 () Bool)
(declare-fun P16 () Bool)
(declare-fun P17 () Bool)
(declare-fun P18 () Bool)
(declare-fun P19 () Bool)
(declare-fun P20 () Bool)
(declare-fun P21 () Bool)
(declare-fun P22 () Bool)
(declare-fun P23 () Bool)
(declare-fun P24 () Bool)
(declare-fun P25 () Bool)
(declare-fun P26 () Bool)
(declare-fun P27 () Bool)
(declare-fun P28 () Bool)
(declare-fun P29 () Bool)
(declare-fun P30 () Bool)
(declare-fun P31 () Bool)
(declare-fun P32 () Bool)
(declare-fun P33 () Bool)
(declare-fun P34 () Bool)
(declare-fun P35 () Bool)
(declare-fun P36 () Bool)
(declare-fun P37 () Bool)
(declare-fun P38 () Bool)
(declare-fun P39 () Bool)
(declare-fun P40 () Bool)
(declare-fun P41 () Bool)
(declare-fun P42 () Bool)
(declare-fun P43 () Bool)
(declare-fun P44 () Bool)
(declare-fun P45 () Bool)
(declare-fun P46 () Bool)
(declare-fun P47 () Bool)
(declare-fun P48 () Bool)
(declare-fun P49 () Bool)
(assert (let ((?v_95 (< (- (- (* 27 x42) (* 4 x12)) (* 20 x15)) 8)) (?v_13 (<= (+ (- (* 5 x42) (* 5 x40)) (* 14 x27)) 4)) (?v_122 (<= (- (+ (* 6 x4) (* 25 x19)) (* 17 x13)) 28)) (?v_205 (<= (- (+ (* 13 x30) (* 2 x30)) (* 4 x10)) 1)) (?v_65 (< (- (+ (* 25 x42) (* 12 x36)) (* 3 x24)) 15)) (?v_18 (* 19 x36)) (?v_1 (* 12 x7))) (let ((?v_45 (<= (- (+ ?v_18 (* 4 x22)) (* 15 x45)) 10)) (?v_102 (= (+ (- (* 26 x24) (* 13 x6)) (* 25 x44)) 20)) (?v_21 (<= (- (+ (* 5 x49) (* 3 x8)) (* 4 x38)) 4)) (?v_90 (* 23 x18)) (?v_92 (f0_1 x47))) (let ((?v_227 (distinct ?v_92 (f0_1 x2))) (?v_26 (f0_1 x43))) (let ((?v_240 (= ?v_26 x0)) (?v_9 (f0_1 x32))) (let ((?v_22 (= ?v_9 x46)) (?v_6 (= (f0_2 x30 x46) (f0_2 x42 x1))) (?v_58 (distinct x32 x15)) (?v_174 (= (f0_1 x41) x1)) (?v_2 (= (f0_2 x25 x13) (f0_2 x1 x16))) (?v_53 (= x19 x41)) (?v_93 (= x0 x23)) (?v_156 (= (f0_1 x6) x12)) (?v_85 (= (f0_2 x6 x36) x14)) (?v_159 (distinct (f0_1 x3) ?v_9)) (?v_10 (= (f0_2 x21 x34) (f0_2 x34 x47))) (?v_109 (f0_1 x38))) (let ((?v_37 (= (f0_2 x9 x24) ?v_109)) (?v_27 (= (f0_1 x44) (f0_2 x2 x7))) (?v_189 (= (f0_2 x9 x20) (f0_1 x9))) (?v_43 (= (f0_1 x45) (f0_2 x46 x3))) (?v_79 (= x32 x0)) (?v_4 (f0_1 x13))) (let ((?v_115 (distinct ?v_4 (f0_2 x25 x35))) (?v_71 (distinct x20 (f0_1 x21))) (?v_23 (distinct ?v_4 (f0_2 x8 x21))) (?v_5 (f0_1 x0))) (let ((?v_91 (= ?v_5 (f0_1 x18))) (?v_60 (f0_1 x11))) (let ((?v_249 (= ?v_60 (f0_2 x20 x8))) (?v_148 (distinct x19 ?v_4)) (?v_125 (= (f0_1 x40) (f0_1 x7))) (?v_104 (f0_1 x46))) (let ((?v_14 (distinct ?v_104 x36)) (?v_40 (= x8 (f0_2 x4 x28))) (?v_94 (= x30 ?v_9)) (?v_63 (distinct (f0_2 x41 x44) (f0_2 x33 x6))) (?v_66 (distinct x18 ?v_26)) (?v_157 (= ?v_60 ?v_4)) (?v_224 (distinct (f0_1 x5) x0)) (?v_158 (distinct (f0_2 x49 x18) ?v_104)) (?v_96 (= (f0_1 x12) ?v_5)) (?v_33 (= (f0_2 x17 x34) x40)) (?v_143 (distinct (f0_2 x18 x24) (f0_2 x37 x19))) (?v_232 (distinct x3 (f0_2 x44 x18))) (?v_154 (= ?v_109 (f0_2 x13 x18))) (?v_170 (distinct ?v_26 x17)) (?v_124 (distinct (f0_2 x41 x48) (f0_2 x19 x2))) (?v_82 (= (f0_2 x27 x31) (f0_1 x19))) (?v_15 (= x15 (f0_1 x15))) (?v_132 (= (f0_2 x2 x32) x8)) (?v_7 (= (f0_2 x11 x44) x25)) (?v_28 (= x49 (f0_2 x37 x0))) (?v_54 (= x32 (f0_2 x29 x4))) (?v_77 (= x45 ?v_92)) (?v_99 (= (f0_1 x1) x14)) (?v_48 (distinct (f0_2 x27 x38) (f0_2 x10 x38))) (?v_46 (= (f0_2 x26 x14) (f0_2 x32 x15))) (?v_0 (not ?v_21)) (?v_207 (not ?v_23))) (let ((?v_197 (not ?v_94)) (?v_201 (not ?v_249)) (?v_8 (not P28)) (?v_34 (not ?v_6)) (?v_17 (not P27)) (?v_161 (not ?v_10)) (?v_172 (not ?v_77)) (?v_118 (not ?v_143)) (?v_199 (not ?v_99)) (?v_75 (not ?v_28)) (?v_164 (not ?v_45)) (?v_61 (not ?v_115)) (?v_177 (not P45)) (?v_103 (not P10)) (?v_166 (not ?v_96)) (?v_133 (not ?v_71)) (?v_55 (not P25)) (?v_74 (not ?v_2)) (?v_181 (not P0)) (?v_84 (not ?v_65)) (?v_198 (not P3)) (?v_202 (not ?v_37)) (?v_69 (not ?v_13)) (?v_252 (not ?v_14)) (?v_80 (not ?v_93)) (?v_35 (not ?v_66)) (?v_78 (not P18)) (?v_50 (not ?v_22)) (?v_182 (not P44)) (?v_114 (not P5)) (?v_47 (not ?v_54)) (?v_117 (not P15)) (?v_88 (not ?v_170)) (?v_81 (not P21)) (?v_57 (not ?v_27)) (?v_239 (not P32)) (?v_163 (not ?v_33)) (?v_72 (not P17)) (?v_179 (not P41)) (?v_36 (not P6)) (?v_121 (not ?v_125)) (?v_200 (not P22)) (?v_229 (not ?v_40)) (?v_111 (not P1)) (?v_101 (not P2)) (?v_107 (not P46)) (?v_59 (not P34)) (?v_218 (not ?v_53)) (?v_171 (not P37)) (?v_83 (not ?v_58)) (?v_97 (not ?v_157)) (?v_146 (not ?v_7)) (?v_233 (not ?v_15)) (?v_257 (not P39)) (?v_211 (not P7)) (?v_145 (not P4)) (?v_217 (not P26)) (?v_134 (not P19)) (?v_194 (not ?v_82)) (?v_255 (not P14)) (?v_110 (not P40)) (?v_155 (not P30)) (?v_183 (not ?v_91)) (?v_203 (not P31)) (?v_208 (not P9)) (?v_106 (not ?v_158)) (?v_216 (not P24)) (?v_190 (not ?v_232)) (?v_180 (not P35)) (?v_237 (not ?v_102)) (?v_162 (not ?v_79)) (?v_191 (not ?v_174)) (?v_137 (not P16)) (?v_128 (not ?v_122)) (?v_150 (not ?v_124)) (?v_165 (not P36)) (?v_139 (not P43)) (?v_173 (not ?v_132)) (?v_144 (not ?v_205)) (?v_141 (not ?v_95)) (?v_186 (not P49)) (?v_147 (not P20)) (?v_176 (not P23)) (?v_169 (not P12)) (?v_254 (not P47)) (?v_160 (not ?v_148)) (?v_178 (not ?v_240)) (?v_206 (not P13)) (?v_215 (not P29)) (?v_250 (not ?v_156)) (?v_236 (not P38)) (?v_212 (not P33)) (?v_209 (not ?v_159)) (?v_221 (not ?v_43)) (?v_213 (not ?v_154)) (?v_228 (not P42)) (?v_235 (not P48)) (?v_234 (not P11)) (?v_253 (not ?v_85)) (?v_258 (not ?v_227)) (?v_245 (not ?v_48)) (?v_242 (not P8)) (?v_260 (or P31 P38)) (?v_248 (not ?v_224)) (?v_256 (not ?v_63)) (?v_120 (<= (+ (* 27 x24) (* 10 x27)) 8))) (let ((?v_185 (not ?v_120)) (?v_67 (<= (+ (* 9 x3) (* 23 x6)) 8)) (?v_167 (<= (- (- (* 12 x19) 0) ?v_18) 20))) (let ((?v_56 (not ?v_167)) (?v_105 (< (+ (* 15 x23) (* 21 x20)) 16)) (?v_219 (<= (+ (- 0 (* 26 x44)) (* 20 x5)) 28))) (let ((?v_89 (not ?v_219)) (?v_87 (< (- (* 22 x9) (* 22 x8)) 21))) (let ((?v_151 (not ?v_87)) (?v_149 (not ?v_105)) (?v_153 (not ?v_67)) (?v_226 (< (- (- (* 8 x49) 0) (* 15 x22)) (- 11)))) (let ((?v_113 (not ?v_226)) (?v_11 (<= (+ (- (* 15 x5) ?v_1) (* 19 x40)) (- 28))) (?v_52 (<= (- (- (* (- 8) x29) (* 13 x9)) (* 27 x16)) 28)) (?v_24 (< (- (- (* 10 x10) (* 9 x47)) 0) (- 25))) (?v_29 (<= (+ (* 15 x40) (* 17 x42) (* 8 x24)) (- 21)))) (let ((?v_142 (not ?v_29)) (?v_20 (< (+ (* (- 2) x45) (* 22 x49) (* 13 x22)) (- 14))) (?v_3 (< (- (+ x47 ?v_1) (* 9 x37)) (- 11))) (?v_25 (<= (- (+ (* 12 x4) (* 6 x11)) (* 14 x8)) (- 7))) (?v_129 (= (- (* (- 2) x10) (* 4 x17)) (- 25)))) (let ((?v_19 (not ?v_3)) (?v_12 (< (+ (* (- 26) x5) (* 16 x27) (* 20 x1)) 24)) (?v_51 (not ?v_11)) (?v_136 (= (- (+ (* (- 22) x27) (* 18 x11)) (* 15 x29)) (- 29))) (?v_152 (< (- (* (- 12) x46) (* 8 x36)) 27))) (let ((?v_16 (not ?v_152)) (?v_112 (not ?v_12)) (?v_195 (<= (+ (* (- 3) x28) (* 5 x46) (* 16 x38)) 7))) (let ((?v_38 (not ?v_195)) (?v_214 (= (- (+ (* (- 26) x40) (* 13 x42)) (* 15 x35)) 1))) (let ((?v_70 (not ?v_214)) (?v_126 (< (+ (* (- 16) x15) (* 12 x37) (* 8 x32)) (- 18)))) (let ((?v_42 (not ?v_126)) (?v_30 (= (- (* 15 x2) (* 22 x22)) (- 28)))) (let ((?v_31 (not ?v_30)) (?v_64 (< (+ (- (* (- 12) x18) 0) x17) (- 11))) (?v_39 (<= (- (- (* 2 x18) (* 10 x8)) (* 13 x25)) (- 21))) (?v_41 (<= (- (- (* 10 x9) 0) (* 11 x9)) (- 18)))) (let ((?v_32 (not ?v_41)) (?v_44 (<= (+ (* (- 8) x37) x21 (* 12 x24)) 13)) (?v_49 (<= (+ (* (- 23) x31) (* 11 x34) ?v_90) (- 3)))) (let ((?v_251 (not ?v_49)) (?v_68 (< (+ (- 0 (* 17 x44)) (* 19 x27)) (- 11))) (?v_116 (not ?v_24)) (?v_138 (<= (- (+ (* (- 26) x3) (* 18 x32)) (* 12 x33)) 26))) (let ((?v_222 (not ?v_138)) (?v_135 (not ?v_39)) (?v_123 (not ?v_44)) (?v_231 (<= (+ (* (- 23) x18) (* 13 x4) (* 12 x12)) (- 22)))) (let ((?v_187 (not ?v_231)) (?v_62 (< (+ (- (* (- 7) x34) (* 10 x30)) (* 5 x26)) (- 18))) (?v_210 (<= (+ (* (- 26) x0) (* 20 x36)) 9)) (?v_76 (<= (- (- (* (- 12) x34) x41) (* 14 x22)) (- 6)))) (let ((?v_130 (not ?v_62)) (?v_140 (not ?v_64)) (?v_73 (not ?v_52)) (?v_127 (not ?v_68)) (?v_98 (not ?v_20)) (?v_238 (< (- (+ (* (- 13) x31) (* 13 x29)) x45) 12))) (let ((?v_108 (not ?v_238)) (?v_86 (= (+ (- (* 11 x19) 0) (* 4 x48)) (- 28)))) (let ((?v_247 (not ?v_86)) (?v_193 (not ?v_76)) (?v_188 (<= (- (+ (* (- 22) x0) (* 11 x48)) (* 27 x19)) 4)) (?v_100 (< (- (- (* (- 7) x25) (* 4 x23)) (* 14 x12)) 24)) (?v_119 (< (+ (- (* (- 11) x2) (* 11 x23)) ?v_90) (- 6))) (?v_131 (< (- (- (* (- 16) x46) x40) (* 27 x15)) (- 6))) (?v_196 (< (- (- (* (- 14) x3) (* 7 x23)) (* 8 x25)) (- 10)))) (let ((?v_230 (not ?v_119)) (?v_204 (< (- (- 0 (* 25 x30)) (* 13 x26)) (- 27)))) (let ((?v_175 (not ?v_204)) (?v_259 (not ?v_136)) (?v_184 (<= (+ (* 26 x31) (* 3 x16)) (- 15))) (?v_168 (not ?v_129))) (let ((?v_244 (not ?v_184)) (?v_192 (or P18 ?v_108)) (?v_225 (not ?v_196)) (?v_241 (not ?v_25)) (?v_246 (not ?v_210)) (?v_223 (not ?v_188)) (?v_220 (not ?v_131)) (?v_243 (not ?v_100))) (and (and (and (and (and (and (and (and (and (and (and (and (and (and (and (and (and (and (and (and (and (and (and (and (and (and (and (and (and (and (and (and (and (and (and (and (and (and (and (and (and (and (and (and (and (and (and (and (and (and (and (and (and (and (and (and (and (and (and (and (and (and (and (and (and (and (and (and (and (and (and (and (and (and (and (and (and (and (and (and (and (and (and (and (and (and (and (and (and (and (and (and (and (and (and (and (and (and (and (and (and (and (and (and (and (and (and (and (and (and (and (and (and (and (and (and (and (and (and (and (and (and (and (and (and (and (and (and (and (and (and (and (and (and (and (and (and (and (and (and (and (and (and (and (and (and (and (and (and (and (and (and (and (and (and (and (and (and (and (and (and (and (and (and (and (and (and (and (and (and (and (and (and (and (and (and (and (and (and (and (and (and (and (and (and (and (and (and (and (and (and (and (and (and (and (and (and (and (and (and (and (and (and (and (and (and (and (and (and (and (and (and (and (and (and (and (and (and (and (and (and (and (and (and (and (and (and (and (and (and (and (and (and (and (and (and (and (and (and (and (and (and (and (and (and (and (and (and (and (and (and (and (and (and (and (and (and (and (and (and (and (and (and (and (and (and (and (and (and (and (and (and (and (and (and (and (and (and (and (and (and (and (and (and (and (and (and (and (and (and (and (and (and (and (and (and (and (and (and (and (and (and (and (and (and (and (and (and (and (and (and (and (and (and (and (and (and (and (and (and (and (and (and (and (and (and (and (and (and (and (and (and (and (and (and (and (and (and (and (and (and (and (and (and (and (and (and (and (and (and (and (and (and (and (and (and (and (and (and (and (and (and (and (and (and (and (and (and (and (and (and (and (and (and (and (and (and (and (and (and (and (and (and (and (and (and (and (and (and (and (and (and (and (and (and (and (and (and (and (and (and (and (and (and (and (and (and (and (and (and (and (and (and (and (and (and (and (and (and (and (and (and (and (and (and (and (and (and (and (and (and (and (and (and (and (and (and (and (and (and (and (and (and (and (and (and (and (and (and (and (and (and (and (and (and (and (and (and (and (and (and (and (and (and (and (and (and (and (and (and (and (and (and (and (and (and (and (and (and (and (and (and (and (and (and (and (and (and (and (and (and (and (and (and (and (and (and (and (and (and (and (and (and (and (and (and (and (and (and (and (and (and (and (and (and (and (and (and (and (and (and (and (and (and (and (and (and (and (and (and (and (and (and (and (and (and (and (and (and (and (and (and (and (and (and (and (and (and (and (and (and (and (and (and (and (and (and (and (and (and (and (and (and (and (and (and (and (and (and (and (and (and (and (and (and (and (and (and (and (and (and (and (and (and (and (and (and (and (and (and (and (and (and (and (and (and (and (and (and (or (or P28 ?v_13) P32) (or (or ?v_113 ?v_0) ?v_11)) (or (or P29 ?v_14) ?v_52)) (or (or ?v_207 ?v_24) ?v_197)) (or (or ?v_142 ?v_201) ?v_8)) (or (or ?v_91 ?v_34) ?v_17)) (or (or ?v_161 ?v_2) ?v_0)) (or (or ?v_20 ?v_3) ?v_46)) (or (or ?v_172 ?v_118) ?v_199)) (or (or ?v_25 ?v_2) ?v_3)) (or (or ?v_75 P3) P9)) (or (or ?v_164 ?v_129) P13)) (or (or ?v_61 ?v_177) P32)) (or (or ?v_103 ?v_19) ?v_166)) (or (or ?v_122 ?v_133) ?v_7)) (or (or ?v_85 P37) ?v_79)) (or (or ?v_55 ?v_185) ?v_12)) (or (or P4 ?v_6) ?v_74)) (or (or ?v_40 ?v_63) ?v_181)) (or (or ?v_124 ?v_7) ?v_8)) (or (or ?v_22 ?v_10) ?v_67)) (or (or ?v_84 ?v_51) ?v_198)) (or (or ?v_136 ?v_15) ?v_16)) (or (or ?v_112 ?v_38) ?v_27)) (or (or P13 ?v_202) ?v_70)) (or (or ?v_69 ?v_252) ?v_15)) (or (or P11 ?v_16) ?v_17)) (or (or ?v_42 ?v_80) ?v_35)) (or (or ?v_43 ?v_56) ?v_19)) (or (or P48 ?v_20) P38)) (or (or ?v_33 ?v_0) ?v_78)) (or (or ?v_14 ?v_31) ?v_21)) (or (or ?v_48 P27) ?v_50)) (or (or ?v_64 ?v_182) ?v_114)) (or (or ?v_47 ?v_3) ?v_39)) (or (or ?v_16 ?v_117) ?v_23)) (or (or ?v_24 ?v_32) ?v_25)) (or (or ?v_88 ?v_81) ?v_57)) (or (or ?v_44 ?v_28) ?v_29)) (or (or ?v_30 ?v_239) ?v_251)) (or (or ?v_31 P17) ?v_25)) (or (or ?v_58 ?v_32) ?v_163)) (or (or ?v_72 ?v_34) ?v_21)) (or (or ?v_68 ?v_179) ?v_35)) (or (or ?v_28 ?v_116) ?v_36)) (or (or ?v_222 ?v_82) ?v_36)) (or (or ?v_121 P17) ?v_200)) (or (or ?v_14 ?v_37) ?v_38)) (or (or ?v_15 ?v_135) ?v_229)) (or (or ?v_41 ?v_111) P36)) (or (or ?v_42 P12) ?v_43)) (or (or ?v_123 ?v_101) ?v_107)) (or (or ?v_45 (not ?v_46)) P8)) (or (or ?v_187 ?v_47) ?v_59)) (or (or ?v_6 ?v_45) ?v_218)) (or (or ?v_62 ?v_48) ?v_49)) (or (or ?v_50 ?v_51) P40)) (or (or P16 ?v_210) ?v_52)) (or (or ?v_76 ?v_53) ?v_54)) (or (or ?v_55 ?v_30) ?v_171)) (or (or ?v_56 ?v_57) ?v_83)) (or (or ?v_47 P36) ?v_59)) (or (or ?v_105 ?v_97) ?v_61)) (or (or P2 ?v_19) P9)) (or (or P24 ?v_130) ?v_63)) (or (or ?v_140 ?v_146) ?v_65)) (or (or P35 ?v_66) ?v_73)) (or (or ?v_67 ?v_34) ?v_127)) (or (or ?v_233 ?v_89) ?v_98)) (or (or P27 ?v_69) P48)) (or (or ?v_70 ?v_53) ?v_17)) (or (or ?v_71 ?v_257) ?v_72)) (or (or ?v_73 ?v_108) ?v_44)) (or (or ?v_74 ?v_75) ?v_211)) (or (or P38 ?v_156) ?v_247)) (or (or ?v_193 P9) P0)) (or (or P30 ?v_27) ?v_145)) (or (or ?v_77 ?v_217) ?v_78)) (or (or ?v_95 P37) ?v_79)) (or (or ?v_134 ?v_49) ?v_80)) (or (or ?v_19 ?v_14) P22)) (or (or ?v_102 P44) ?v_81)) (or (or ?v_194 ?v_188) P6)) (or (or ?v_48 P7) P13)) (or (or ?v_159 P7) ?v_75)) (or (or ?v_10 ?v_83) P26)) (or (or ?v_84 ?v_255) ?v_85)) (or (or ?v_80 ?v_151) ?v_27)) (or (or ?v_86 ?v_132) ?v_87)) (or (or ?v_88 ?v_100) ?v_76)) (or (or ?v_89 P41) ?v_119)) (or (or ?v_110 ?v_91) ?v_59)) (or (or ?v_227 P39) ?v_93)) (or (or ?v_94 ?v_224) ?v_95)) (or (or ?v_28 ?v_62) ?v_155)) (or (or P44 ?v_83) ?v_183)) (or (or ?v_96 ?v_94) ?v_15)) (or (or ?v_97 ?v_98) ?v_48)) (or (or P37 ?v_54) ?v_52)) (or (or ?v_99 P38) P10)) (or (or ?v_36 P40) ?v_49)) (or (or ?v_63 ?v_203) ?v_54)) (or (or ?v_100 ?v_23) ?v_101)) (or (or ?v_19 ?v_102) ?v_103)) (or (or ?v_208 ?v_0) ?v_67)) (or (or ?v_106 P45) ?v_46)) (or (or ?v_67 P38) P16)) (or (or ?v_105 P21) ?v_106)) (or (or ?v_38 ?v_37) ?v_99)) (or (or ?v_32 P37) ?v_107)) (or (or ?v_216 P17) P19)) (or (or ?v_190 ?v_84) ?v_35)) (or (or ?v_19 ?v_108) P36)) (or (or ?v_180 ?v_16) ?v_154)) (or (or P19 ?v_237) ?v_110)) (or (or ?v_65 ?v_111) ?v_85)) (or (or ?v_112 P34) ?v_162)) (or (or ?v_38 ?v_131) ?v_63)) (or (or ?v_196 ?v_27) ?v_113)) (or (or ?v_114 ?v_115) P4)) (or (or ?v_43 P20) ?v_149)) (or (or P9 ?v_116) P38)) (or (or P5 ?v_117) ?v_118)) (or (or ?v_191 P27) ?v_116)) (or (or ?v_230 ?v_120) P36)) (or (or ?v_83 ?v_121) ?v_29)) (or (or P36 ?v_53) ?v_114)) (or (or ?v_137 ?v_84) ?v_99)) (or (or ?v_38 ?v_128) P4)) (or (or P25 ?v_123) ?v_75)) (or (or P23 ?v_42) P48)) (or (or P11 P23) ?v_175)) (or (or ?v_150 ?v_153) ?v_125)) (or (or ?v_126 ?v_61) ?v_127)) (or (or ?v_35 P8) ?v_165)) (or (or ?v_13 P19) ?v_128)) (or (or ?v_139 ?v_46) ?v_40)) (or (or ?v_129 ?v_46) ?v_130)) (or (or ?v_131 ?v_31) ?v_173)) (or (or ?v_144 ?v_133) ?v_32)) (or (or ?v_134 ?v_135) ?v_259)) (or (or ?v_137 ?v_138) ?v_139)) (or (or ?v_13 ?v_141) ?v_140)) (or (or ?v_186 ?v_31) ?v_34)) (or (or P28 ?v_99) ?v_81)) (or (or ?v_40 P26) ?v_122)) (or (or ?v_141 P26) ?v_147)) (or (or ?v_142 ?v_123) ?v_62)) (or (or P29 ?v_143) ?v_144)) (or (or ?v_145 ?v_57) ?v_176)) (or (or ?v_80 P28) P18)) (or (or ?v_146 ?v_97) ?v_88)) (or (or P41 ?v_77) ?v_147)) (or (or P29 ?v_148) ?v_23)) (or (or ?v_83 P9) ?v_148)) (or (or ?v_64 P30) ?v_132)) (or (or ?v_149 ?v_116) ?v_150)) (or (or ?v_13 ?v_107) ?v_151)) (or (or ?v_145 ?v_128) ?v_169)) (or (or ?v_123 ?v_189) ?v_102)) (or (or ?v_152 ?v_39) P47)) (or (or P18 ?v_16) ?v_153)) (or (or ?v_145 ?v_113) ?v_136)) (or (or P5 ?v_154) ?v_184)) (or (or ?v_79 ?v_155) ?v_76)) (or (or ?v_152 ?v_17) ?v_254)) (or (or ?v_7 ?v_31) ?v_8)) (or (or ?v_156 ?v_49) ?v_44)) (or (or ?v_3 P13) ?v_157)) (or (or ?v_118 ?v_96) ?v_73)) (or (or ?v_2 ?v_160) ?v_158)) (or (or P23 ?v_159) ?v_127)) (or (or ?v_98 ?v_31) ?v_160)) (or (or ?v_161 ?v_162) ?v_78)) (or (or ?v_140 ?v_168) ?v_163)) (or (or ?v_130 ?v_164) ?v_165)) (or (or ?v_178 ?v_153) ?v_166)) (or (or ?v_137 ?v_12) P30)) (or (or P36 ?v_102) P3)) (or (or ?v_206 ?v_118) ?v_167)) (or (or ?v_168 ?v_169) ?v_170)) (or (or ?v_171 P8) ?v_172)) (or (or ?v_27 P27) ?v_24)) (or (or ?v_173 ?v_174) P35)) (or (or ?v_70 ?v_45) P6)) (or (or P40 ?v_175) ?v_167)) (or (or ?v_122 ?v_87) ?v_215)) (or (or ?v_78 P43) ?v_114)) (or (or ?v_74 ?v_62) ?v_176)) (or (or P10 ?v_250) ?v_111)) (or (or ?v_42 ?v_236) ?v_28)) (or (or ?v_40 ?v_98) P40)) (or (or ?v_126 ?v_105) ?v_80)) (or (or ?v_129 ?v_85) ?v_117)) (or (or ?v_177 ?v_159) ?v_178)) (or (or ?v_179 P39) ?v_84)) (or (or ?v_89 P1) ?v_124)) (or (or ?v_168 ?v_86) ?v_89)) (or (or P19 ?v_129) ?v_40)) (or (or ?v_153 ?v_180) ?v_174)) (or (or ?v_38 ?v_54) ?v_181)) (or (or ?v_140 ?v_120) ?v_128)) (or (or ?v_3 ?v_169) ?v_40)) (or (or ?v_182 ?v_183) P3)) (or (or ?v_120 ?v_62) ?v_244)) (or (or P9 ?v_185) ?v_186)) (or (or P8 ?v_187) P44)) (or (or P5 ?v_174) ?v_165)) (or (or ?v_80 ?v_188) ?v_85)) (or (or ?v_122 ?v_13) ?v_188)) (or (or ?v_163 ?v_58) ?v_189)) (or (or ?v_139 ?v_81) ?v_102)) (or (or P21 P35) ?v_183)) (or ?v_192 ?v_30)) (or (or ?v_31 ?v_12) ?v_118)) (or (or ?v_107 ?v_76) ?v_190)) (or (or ?v_176 ?v_59) ?v_191)) (or (or ?v_153 ?v_173) ?v_95)) (or ?v_192 P16)) (or (or ?v_12 ?v_193) ?v_55)) (or (or ?v_101 ?v_103) ?v_154)) (or (or ?v_194 ?v_39) P32)) (or (or ?v_45 ?v_195) P15)) (or (or ?v_12 ?v_25) ?v_43)) (or (or P4 ?v_151) ?v_50)) (or (or ?v_74 ?v_114) P23)) (or (or P44 ?v_225) ?v_46)) (or (or P32 ?v_167) ?v_197)) (or (or P21 ?v_197) ?v_133)) (or (or P13 ?v_84) ?v_212)) (or (or P30 ?v_198) ?v_52)) (or (or ?v_154 ?v_80) ?v_141)) (or (or ?v_101 ?v_172) ?v_23)) (or (or ?v_102 ?v_156) ?v_128)) (or (or P34 ?v_189) P4)) (or (or P28 ?v_159) ?v_45)) (or (or ?v_199 ?v_128) ?v_139)) (or (or ?v_102 ?v_200) P35)) (or (or ?v_130 P6) P48)) (or (or ?v_201 ?v_23) ?v_96)) (or (or P46 P25) ?v_188)) (or (or P37 ?v_202) ?v_55)) (or (or P17 ?v_123) ?v_58)) (or (or ?v_125 ?v_32) ?v_203)) (or (or ?v_130 ?v_64) ?v_176)) (or (or ?v_182 P7) ?v_188)) (or (or ?v_204 P33) ?v_190)) (or (or ?v_84 ?v_205) ?v_134)) (or (or ?v_84 ?v_209) ?v_179)) (or (or ?v_147 ?v_170) ?v_63)) (or (or ?v_187 P26) ?v_27)) (or (or ?v_31 P5) ?v_115)) (or (or ?v_183 ?v_221) ?v_170)) (or (or ?v_80 ?v_190) ?v_143)) (or (or ?v_96 ?v_132) ?v_22)) (or (or ?v_29 ?v_206) P17)) (or (or ?v_160 P25) ?v_19)) (or (or ?v_126 ?v_89) ?v_241)) (or (or ?v_213 ?v_184) ?v_193)) (or (or ?v_207 ?v_208) ?v_122)) (or (or ?v_57 ?v_228) ?v_63)) (or (or ?v_235 ?v_98) ?v_16)) (or (or ?v_113 ?v_204) ?v_122)) (or (or ?v_209 ?v_158) ?v_198)) (or (or ?v_246 ?v_33) ?v_211)) (or (or ?v_167 P14) ?v_160)) (or (or ?v_29 ?v_128) ?v_76)) (or (or ?v_186 ?v_130) ?v_177)) (or (or P20 ?v_136) ?v_194)) (or (or ?v_20 ?v_19) ?v_171)) (or (or ?v_212 ?v_116) ?v_128)) (or (or P36 ?v_213) ?v_65)) (or (or ?v_53 ?v_214) ?v_190)) (or (or ?v_103 ?v_196) P5)) (or (or ?v_215 ?v_94) ?v_79)) (or (or ?v_234 P28) ?v_177)) (or (or ?v_214 ?v_177) ?v_216)) (or (or P22 P16) P11)) (or (or ?v_217 ?v_65) ?v_145)) (or (or ?v_218 ?v_174) ?v_141)) (or (or ?v_105 ?v_176) ?v_73)) (or (or ?v_124 ?v_217) ?v_143)) (or (or P28 ?v_185) ?v_195)) (or (or ?v_175 ?v_194) P19)) (or (or ?v_147 ?v_103) ?v_158)) (or (or ?v_223 ?v_117) P47)) (or (or ?v_33 ?v_11) ?v_219)) (or (or ?v_19 ?v_180) P34)) (or (or ?v_142 P4) ?v_208)) (or (or ?v_119 ?v_135) P0)) (or (or ?v_190 ?v_154) ?v_88)) (or (or ?v_220 P47) ?v_6)) (or (or ?v_220 ?v_80) ?v_59)) (or (or ?v_205 ?v_22) ?v_75)) (or (or ?v_17 ?v_53) ?v_49)) (or (or ?v_184 ?v_174) ?v_100)) (or (or ?v_188 P18) ?v_24)) (or (or ?v_190 ?v_137) ?v_127)) (or (or ?v_67 ?v_177) ?v_20)) (or (or ?v_253 ?v_221) ?v_13)) (or (or ?v_38 ?v_219) ?v_32)) (or (or ?v_148 ?v_165) ?v_88)) (or (or ?v_180 ?v_152) ?v_21)) (or (or ?v_144 ?v_96) ?v_52)) (or (or ?v_222 ?v_199) ?v_96)) (or (or ?v_171 ?v_121) ?v_78)) (or (or ?v_112 ?v_120) ?v_143)) (or (or ?v_105 ?v_170) ?v_138)) (or (or ?v_157 ?v_178) ?v_110)) (or (or ?v_52 ?v_157) ?v_215)) (or (or ?v_212 ?v_223) ?v_15)) (or (or ?v_224 ?v_225) ?v_205)) (or (or P42 ?v_53) ?v_133)) (or (or P36 ?v_81) ?v_174)) (or (or ?v_223 ?v_171) ?v_121)) (or (or ?v_27 ?v_199) ?v_42)) (or (or ?v_173 P3) ?v_52)) (or (or ?v_196 ?v_16) ?v_199)) (or (or ?v_63 ?v_63) P2)) (or (or ?v_222 ?v_8) P16)) (or (or ?v_243 ?v_226) ?v_195)) (or (or ?v_40 ?v_88) ?v_157)) (or (or ?v_216 ?v_185) P4)) (or (or ?v_38 ?v_34) P37)) (or (or ?v_157 P24) ?v_181)) (or (or ?v_258 ?v_228) ?v_2)) (or (or ?v_229 ?v_230) ?v_59)) (or (or P36 P24) ?v_45)) (or (or ?v_63 ?v_96) P12)) (or (or ?v_23 ?v_231) ?v_12)) (or (or ?v_164 ?v_231) P8)) (or (or P22 ?v_206) ?v_172)) (or (or ?v_232 ?v_139) P38)) (or (or ?v_114 ?v_108) ?v_151)) (or (or ?v_217 ?v_245) ?v_3)) (or (or P1 ?v_156) P19)) (or (or ?v_233 ?v_14) ?v_97)) (or (or ?v_25 ?v_168) ?v_13)) (or (or ?v_234 ?v_172) ?v_197)) (or (or ?v_151 ?v_59) P39)) (or (or P31 ?v_157) ?v_103)) (or (or ?v_179 ?v_170) ?v_111)) (or (or ?v_24 ?v_70) ?v_228)) (or (or ?v_93 ?v_242) P6)) (or (or ?v_96 P42) ?v_208)) (or ?v_260 ?v_87)) (or (or ?v_197 ?v_106) ?v_67)) (or (or ?v_31 ?v_58) ?v_128)) (or (or P8 P23) P38)) (or (or ?v_158 P2) ?v_235)) (or (or ?v_16 ?v_29) ?v_199)) (or (or ?v_248 P5) ?v_232)) (or (or ?v_189 P24) ?v_65)) (or (or ?v_30 ?v_161) ?v_88)) (or (or ?v_165 ?v_146) ?v_189)) (or (or ?v_229 ?v_222) ?v_137)) (or (or ?v_89 P9) ?v_194)) (or (or ?v_236 ?v_179) ?v_206)) (or (or ?v_114 P24) ?v_14)) (or (or ?v_28 ?v_134) ?v_126)) (or (or ?v_120 ?v_57) ?v_12)) (or (or ?v_114 ?v_102) ?v_222)) (or (or ?v_15 ?v_186) P3)) (or (or ?v_52 ?v_29) P49)) (or (or ?v_225 P46) ?v_197)) (or (or ?v_47 ?v_237) ?v_169)) (or (or ?v_170 ?v_229) ?v_48)) (or (or ?v_125 ?v_24) ?v_197)) (or (or ?v_238 ?v_93) P5)) (or (or ?v_172 P15) ?v_137)) (or (or ?v_231 ?v_41) P18)) (or (or ?v_239 ?v_180) ?v_155)) (or (or ?v_188 ?v_54) ?v_224)) (or (or ?v_240 ?v_149) P25)) (or (or ?v_29 ?v_139) ?v_241)) (or (or ?v_197 P31) P15)) (or (or ?v_205 ?v_64) P17)) (or (or ?v_75 P6) ?v_239)) (or (or ?v_195 P34) ?v_186)) (or (or ?v_20 ?v_184) ?v_32)) (or (or ?v_11 ?v_227) P44)) (or (or ?v_122 ?v_242) P1)) (or (or ?v_59 P43) ?v_126)) (or (or P17 ?v_128) ?v_138)) (or (or ?v_95 ?v_240) ?v_105)) (or (or ?v_243 ?v_99) ?v_105)) (or (or ?v_160 ?v_81) ?v_132)) (or (or ?v_159 ?v_129) ?v_177)) (or (or ?v_190 P41) ?v_244)) (or (or ?v_194 ?v_6) ?v_241)) (or (or P8 ?v_140) ?v_73)) (or (or ?v_206 ?v_119) ?v_229)) (or (or ?v_78 ?v_195) P23)) (or (or ?v_56 ?v_136) ?v_13)) (or (or ?v_197 ?v_206) ?v_178)) (or (or ?v_211 ?v_245) ?v_62)) (or (or ?v_183 ?v_83) ?v_174)) (or (or ?v_79 ?v_112) ?v_172)) (or (or ?v_186 ?v_237) ?v_256)) (or (or ?v_56 ?v_193) ?v_70)) (or (or ?v_167 ?v_201) ?v_82)) (or (or P18 ?v_244) P40)) (or (or ?v_117 ?v_21) ?v_171)) (or (or ?v_246 ?v_52) ?v_24)) (or (or ?v_31 P20) ?v_211)) (or (or ?v_247 P32) ?v_0)) (or (or ?v_132 P45) P21)) (or (or P8 ?v_233) P17)) (or (or ?v_156 ?v_177) ?v_99)) (or (or ?v_38 ?v_68) ?v_32)) (or (or ?v_186 P8) ?v_62)) (or (or ?v_46 ?v_27) P24)) (or (or ?v_115 ?v_111) ?v_30)) (or (or ?v_75 ?v_20) ?v_247)) (or (or ?v_6 ?v_213) ?v_205)) (or (or P19 P12) ?v_201)) (or (or ?v_248 ?v_87) ?v_54)) (or (or ?v_66 ?v_116) ?v_129)) (or (or ?v_47 P14) ?v_48)) (or (or ?v_185 ?v_124) ?v_226)) (or (or P22 P37) ?v_46)) (or (or ?v_146 ?v_137) P30)) (or (or ?v_235 ?v_170) P16)) (or (or ?v_64 ?v_54) ?v_91)) (or (or ?v_240 ?v_45) ?v_186)) (or (or P4 ?v_113) ?v_249)) (or (or ?v_201 ?v_148) ?v_130)) (or (or ?v_23 P48) ?v_231)) (or (or ?v_116 ?v_71) ?v_46)) (or (or ?v_177 ?v_144) P27)) (or (or ?v_0 ?v_3) ?v_250)) (or (or ?v_113 ?v_61) ?v_244)) (or (or ?v_186 ?v_202) P29)) (or (or ?v_195 ?v_189) ?v_81)) (or (or ?v_28 ?v_251) ?v_29)) (or (or ?v_17 ?v_173) P15)) (or (or ?v_32 ?v_11) ?v_105)) (or (or ?v_154 ?v_223) ?v_170)) (or (or ?v_113 P23) ?v_158)) (or (or P4 ?v_180) ?v_81)) (or (or ?v_133 ?v_227) ?v_235)) (or (or P43 ?v_182) ?v_229)) (or (or ?v_69 ?v_140) ?v_82)) (or (or ?v_47 ?v_169) ?v_120)) (or (or ?v_252 ?v_231) ?v_37)) (or (or ?v_108 ?v_115) ?v_147)) (or (or ?v_43 ?v_220) ?v_174)) (or (or P7 P35) ?v_97)) (or (or ?v_94 ?v_227) ?v_17)) (or (or ?v_13 ?v_41) P28)) (or (or ?v_234 ?v_61) ?v_84)) (or (or ?v_105 P3) P38)) (or (or ?v_214 ?v_253) ?v_134)) (or (or ?v_140 ?v_23) ?v_87)) (or (or ?v_212 ?v_86) ?v_102)) (or (or ?v_189 ?v_189) ?v_95)) (or (or ?v_51 ?v_98) ?v_74)) (or (or ?v_25 ?v_121) ?v_87)) (or (or P34 ?v_197) ?v_50)) (or (or ?v_67 ?v_49) P10)) (or (or ?v_128 ?v_35) ?v_205)) (or (or ?v_147 ?v_56) ?v_153)) (or (or ?v_188 ?v_234) P18)) (or (or ?v_249 ?v_96) ?v_54)) (or (or ?v_185 ?v_62) ?v_24)) (or (or ?v_0 ?v_91) ?v_31)) (or (or ?v_75 P44) P21)) (or (or ?v_204 ?v_80) ?v_140)) (or (or ?v_161 ?v_183) ?v_154)) (or (or ?v_103 ?v_12) ?v_136)) (or (or ?v_148 ?v_230) ?v_75)) (or (or ?v_35 ?v_158) P35)) (or (or ?v_132 P16) ?v_61)) (or (or P37 ?v_137) ?v_182)) (or (or ?v_209 ?v_40) ?v_13)) (or (or ?v_85 ?v_131) ?v_127)) (or (or P5 ?v_254) ?v_81)) (or (or ?v_0 ?v_88) P26)) (or (or ?v_131 ?v_137) P27)) (or (or ?v_239 ?v_28) ?v_193)) (or (or ?v_76 ?v_226) P46)) (or (or P20 P28) P0)) (or (or ?v_229 ?v_187) ?v_24)) (or (or ?v_57 ?v_251) ?v_190)) (or (or ?v_64 P1) P39)) (or (or ?v_134 ?v_231) ?v_37)) (or (or ?v_72 ?v_133) ?v_238)) (or (or ?v_119 ?v_235) ?v_210)) (or (or P41 ?v_59) ?v_71)) (or (or ?v_172 P17) P10)) (or (or ?v_181 ?v_238) P14)) (or (or P38 ?v_112) ?v_80)) (or (or ?v_91 ?v_156) P17)) (or (or ?v_255 ?v_37) ?v_15)) (or (or ?v_3 ?v_177) P49)) (or (or ?v_42 P49) ?v_134)) (or (or ?v_232 ?v_246) ?v_19)) (or (or ?v_185 ?v_219) ?v_108)) (or (or ?v_42 ?v_251) P38)) (or (or ?v_241 ?v_140) ?v_199)) (or (or P38 ?v_212) ?v_53)) (or (or P41 ?v_105) ?v_249)) (or (or ?v_16 ?v_53) ?v_28)) (or (or ?v_197 ?v_55) P30)) (or (or ?v_129 P6) ?v_46)) (or (or ?v_24 ?v_16) ?v_82)) (or (or ?v_71 ?v_33) ?v_187)) (or (or ?v_95 ?v_163) ?v_117)) (or (or P48 ?v_10) ?v_76)) (or (or ?v_132 ?v_166) ?v_56)) (or (or ?v_202 ?v_37) ?v_30)) (or (or ?v_194 ?v_83) ?v_247)) (or (or ?v_77 ?v_165) ?v_42)) (or (or ?v_158 ?v_251) ?v_82)) (or (or ?v_251 P13) P38)) (or (or ?v_121 ?v_134) ?v_54)) (or (or ?v_87 ?v_20) ?v_209)) (or (or ?v_2 ?v_91) P44)) (or (or ?v_241 ?v_177) P10)) (or (or ?v_68 ?v_168) ?v_53)) (or (or ?v_35 ?v_22) ?v_256)) (or (or ?v_111 ?v_44) ?v_255)) (or (or ?v_218 P47) P44)) (or (or ?v_206 ?v_223) ?v_33)) (or (or ?v_56 ?v_53) ?v_228)) (or (or ?v_46 ?v_237) ?v_222)) (or (or ?v_113 P6) P5)) (or (or ?v_100 ?v_146) ?v_141)) (or (or P20 ?v_211) ?v_251)) (or (or P46 ?v_31) ?v_215)) (or (or P13 ?v_146) ?v_173)) (or (or ?v_196 ?v_67) ?v_39)) (or (or ?v_38 ?v_156) ?v_226)) (or (or P33 ?v_0) ?v_103)) (or (or ?v_22 ?v_44) ?v_176)) (or (or ?v_55 ?v_53) ?v_175)) (or (or ?v_203 ?v_36) ?v_125)) (or (or P11 ?v_237) P8)) (or (or ?v_138 ?v_35) ?v_47)) (or (or ?v_157 ?v_57) ?v_161)) (or (or ?v_85 ?v_41) ?v_88)) (or (or P7 ?v_248) ?v_172)) (or (or ?v_250 ?v_237) ?v_16)) (or (or ?v_94 P33) ?v_115)) (or (or ?v_23 ?v_204) ?v_71)) (or (or ?v_114 ?v_246) ?v_107)) (or (or ?v_17 ?v_150) ?v_238)) (or (or ?v_137 ?v_102) ?v_173)) (or (or P48 ?v_8) ?v_0)) (or (or P33 ?v_115) ?v_147)) (or (or ?v_128 ?v_140) ?v_216)) (or (or ?v_32 ?v_145) ?v_108)) (or (or ?v_86 ?v_185) ?v_112)) (or (or ?v_178 ?v_154) ?v_45)) (or (or ?v_147 ?v_255) P40)) (or (or ?v_178 P20) ?v_97)) (or (or ?v_16 ?v_163) ?v_110)) (or (or ?v_234 ?v_37) P3)) (or (or ?v_257 ?v_28) ?v_36)) (or (or ?v_168 ?v_61) ?v_16)) (or (or ?v_16 ?v_157) ?v_214)) (or (or ?v_124 ?v_91) ?v_143)) (or (or ?v_255 ?v_139) ?v_75)) (or (or ?v_199 ?v_225) ?v_136)) (or (or ?v_196 ?v_134) ?v_17)) (or (or ?v_78 ?v_32) P1)) (or (or ?v_251 P11) ?v_111)) (or (or ?v_34 ?v_258) ?v_129)) (or (or ?v_149 P8) ?v_224)) (or (or ?v_236 ?v_50) ?v_195)) (or (or ?v_201 ?v_115) ?v_99)) (or (or ?v_255 P46) ?v_125)) (or (or ?v_241 ?v_155) ?v_154)) (or (or ?v_256 ?v_103) ?v_113)) (or (or P4 ?v_125) P13)) (or (or ?v_205 ?v_11) ?v_124)) (or (or ?v_57 ?v_79) ?v_195)) (or (or ?v_147 ?v_247) ?v_230)) (or (or P38 ?v_158) ?v_107)) (or (or ?v_81 ?v_129) ?v_50)) (or (or ?v_93 ?v_12) ?v_144)) (or (or ?v_51 ?v_119) ?v_79)) (or (or ?v_42 ?v_31) ?v_146)) (or (or ?v_46 ?v_45) P5)) (or (or ?v_13 P20) ?v_2)) (or (or P43 ?v_66) ?v_140)) (or (or ?v_118 ?v_151) ?v_0)) (or (or ?v_74 P9) ?v_227)) (or (or P36 ?v_66) P39)) (or (or ?v_66 ?v_146) ?v_121)) (or (or ?v_119 ?v_33) ?v_19)) (or (or ?v_38 ?v_56) ?v_238)) (or (or ?v_259 ?v_214) ?v_63)) (or (or ?v_172 ?v_133) ?v_174)) (or ?v_260 ?v_180)) (or (or ?v_43 ?v_64) ?v_247)) (or (or ?v_79 ?v_15) ?v_69)) (or (or P25 ?v_141) ?v_114)) (or (or ?v_243 ?v_106) P6)) (or (or ?v_94 ?v_41) ?v_159))))))))))))))))))))))))))))))))))))
(check-sat)
(exit)
